c preprocessed version of 1j75_graph, 56 vertices, 558 edges
p td 56 558
54 55
53 55
53 54
52 55
52 54
52 53
51 53
51 52
50 52
50 51
49 52
49 51
49 50
48 53
48 52
48 51
48 50
48 49
47 55
47 54
47 53
47 52
47 51
47 49
47 48
46 53
46 52
46 51
46 50
46 49
46 48
46 47
45 55
45 54
45 53
45 52
45 51
45 48
45 47
45 46
44 55
44 54
44 53
44 52
44 47
44 46
44 45
43 55
43 54
43 52
43 45
43 44
42 55
42 45
42 44
42 43
41 44
41 43
41 42
40 46
40 43
40 42
40 41
39 53
39 52
39 51
39 50
39 49
39 47
39 46
39 45
39 44
39 43
39 42
39 41
39 40
38 55
38 54
38 52
38 46
38 44
38 43
38 42
38 41
38 40
38 39
37 44
37 43
37 41
37 40
37 39
37 38
36 52
36 50
36 49
36 46
36 44
36 41
36 40
36 39
36 38
36 37
35 54
35 53
35 52
35 51
35 50
35 49
35 47
35 46
35 45
35 44
35 43
35 40
35 39
35 38
35 37
35 36
34 52
34 44
34 43
34 41
34 39
34 38
34 37
34 36
34 35
33 40
33 37
33 36
33 35
33 34
32 52
32 51
32 50
32 49
32 46
32 44
32 40
32 39
32 37
32 36
32 35
32 34
32 33
31 52
31 51
31 50
31 46
31 44
31 39
31 38
31 36
31 35
31 34
31 33
31 32
30 37
30 35
30 34
30 33
30 32
30 31
29 50
29 36
29 34
29 33
29 32
29 31
29 30
28 52
28 50
28 49
28 46
28 36
28 35
28 33
28 32
28 31
28 30
28 29
27 33
27 32
27 31
27 30
27 29
27 28
26 35
26 34
26 33
26 31
26 30
26 29
26 28
26 27
25 31
25 30
25 27
25 26
24 52
24 35
24 31
24 25
23 25
23 24
22 50
22 35
22 32
22 31
22 28
22 27
22 26
22 25
22 24
22 23
21 54
21 53
21 52
21 51
21 50
21 46
21 44
21 39
21 38
21 35
21 34
21 32
21 31
21 30
21 28
21 27
21 26
21 25
21 24
21 23
21 22
20 52
20 51
20 48
20 31
20 24
20 23
20 22
20 21
19 51
19 50
19 32
19 31
19 28
19 27
19 24
19 23
19 22
19 21
19 20
18 52
18 51
18 50
18 49
18 46
18 44
18 39
18 38
18 36
18 35
18 34
18 32
18 31
18 29
18 28
18 27
18 22
18 21
18 20
18 19
17 52
17 51
17 50
17 49
17 48
17 47
17 35
17 31
17 28
17 24
17 23
17 22
17 21
17 20
17 19
17 18
16 54
16 53
16 52
16 51
16 48
16 47
16 46
16 44
16 39
16 38
16 35
16 34
16 31
16 24
16 23
16 22
16 21
16 20
16 19
16 18
16 17
15 53
15 52
15 51
15 50
15 49
15 48
15 47
15 46
15 45
15 35
15 21
15 20
15 17
15 16
14 54
14 53
14 51
14 48
14 47
14 24
14 21
14 20
14 17
14 16
14 15
13 54
13 53
13 16
13 15
13 14
12 53
12 52
12 51
12 44
12 35
12 24
12 23
12 21
12 20
12 19
12 17
12 16
12 15
12 14
12 13
11 54
11 24
11 21
11 20
11 16
11 13
11 12
10 55
10 54
10 52
10 44
10 43
10 38
10 13
10 12
10 11
9 55
9 54
9 53
9 52
9 51
9 46
9 45
9 44
9 43
9 39
9 38
9 35
9 34
9 31
9 24
9 21
9 20
9 18
9 17
9 16
9 15
9 13
9 12
9 11
9 10
8 54
8 52
8 44
8 38
8 35
8 34
8 31
8 25
8 24
8 23
8 22
8 21
8 20
8 18
8 17
8 16
8 14
8 12
8 11
8 10
8 9
7 54
7 24
7 21
7 16
7 12
7 11
7 10
7 9
7 8
6 55
6 54
6 52
6 44
6 43
6 41
6 39
6 38
6 37
6 35
6 34
6 31
6 21
6 16
6 11
6 10
6 9
6 8
6 7
5 54
5 53
5 52
5 46
5 44
5 43
5 39
5 38
5 37
5 35
5 34
5 33
5 32
5 31
5 30
5 28
5 26
5 24
5 22
5 21
5 20
5 18
5 16
5 12
5 10
5 9
5 8
5 7
5 6
4 38
4 35
4 34
4 31
4 30
4 26
4 25
4 24
4 21
4 16
4 11
4 9
4 8
4 7
4 6
4 5
3 43
3 38
3 34
3 11
3 10
3 8
3 7
3 6
3 5
3 4
2 54
2 52
2 44
2 43
2 41
2 38
2 37
2 35
2 34
2 33
2 31
2 30
2 26
2 21
2 10
2 9
2 7
2 6
2 5
2 4
2 3
1 52
1 44
1 38
1 37
1 35
1 34
1 33
1 32
1 31
1 30
1 29
1 27
1 26
1 25
1 22
1 21
1 18
1 6
1 5
1 4
1 3
1 2
0 43
0 38
0 37
0 34
0 30
0 26
0 7
0 6
0 5
0 4
0 3
0 2
0 1
